p cnf 256 1
256 0
w 1 0.753493
w 2 1 0
w 2 -1 1
w 3 2 1
w 3 -2 0
w 4 3 0.463642
w 4 -3 0.261855
w 5 4 1
w 5 -4 0
w 6 5 0
w 6 -5 1
w 7 6 0.151432
w 7 -6 0.451069
w 8 7 0.254818
w 8 -7 0.375591
w 9 8 0.169678
w 9 -8 0.644125
w 10 9 1
w 10 -9 0
w 11 10 0
w 11 -10 1
w 12 11 0.814804
w 12 -11 0.980207
w 13 12 1
w 13 -12 0
w 14 13 1
w 14 -13 0
w 15 14 0.774074
w 15 -14 0.207509
w 16 15 1
w 16 -15 0
w 17 1 0.556197
w 17 -1 0.692127
w 18 17 2 1
w 18 17 -2 1
w 18 -17 2 0
w 18 -17 -2 0
w 19 18 3 0.752083
w 19 18 -3 0.411549
w 19 -18 3 0.232701
w 19 -18 -3 0.319419
w 20 19 4 0.876825
w 20 19 -4 0.534283
w 20 -19 4 0.320036
w 20 -19 -4 0.159378
w 21 20 5 0
w 21 20 -5 1
w 21 -20 5 1
w 21 -20 -5 0
w 22 21 6 1
w 22 21 -6 1
w 22 -21 6 1
w 22 -21 -6 0
w 23 22 7 1
w 23 22 -7 1
w 23 -22 7 0
w 23 -22 -7 1
w 24 23 8 0.17091
w 24 23 -8 0.773101
w 24 -23 8 0.13092
w 24 -23 -8 0.131477
w 25 24 9 0.988029
w 25 24 -9 0.88356
w 25 -24 9 0.34138
w 25 -24 -9 0.22073
w 26 25 10 0
w 26 25 -10 0
w 26 -25 10 0
w 26 -25 -10 1
w 27 26 11 1
w 27 26 -11 1
w 27 -26 11 0
w 27 -26 -11 0
w 28 27 12 1
w 28 27 -12 1
w 28 -27 12 1
w 28 -27 -12 0
w 29 28 13 0
w 29 28 -13 0
w 29 -28 13 1
w 29 -28 -13 0
w 30 29 14 0
w 30 29 -14 0
w 30 -29 14 1
w 30 -29 -14 1
w 31 30 15 0
w 31 30 -15 1
w 31 -30 15 0
w 31 -30 -15 1
w 32 31 16 0.540635
w 32 31 -16 0.292608
w 32 -31 16 0.672543
w 32 -31 -16 0.277897
w 33 17 0.929477
w 33 -17 0.432301
w 34 33 18 0.160593
w 34 33 -18 0.984054
w 34 -33 18 0.204647
w 34 -33 -18 0.589609
w 35 34 19 1
w 35 34 -19 1
w 35 -34 19 1
w 35 -34 -19 0
w 36 35 20 1
w 36 35 -20 0
w 36 -35 20 0
w 36 -35 -20 1
w 37 36 21 0.701381
w 37 36 -21 0.787472
w 37 -36 21 0.946873
w 37 -36 -21 0.05564
w 38 37 22 1
w 38 37 -22 0
w 38 -37 22 1
w 38 -37 -22 1
w 39 38 23 0
w 39 38 -23 0
w 39 -38 23 0
w 39 -38 -23 1
w 40 39 24 0.393242
w 40 39 -24 0.360013
w 40 -39 24 0.17267
w 40 -39 -24 0.982851
w 41 40 25 1
w 41 40 -25 0
w 41 -40 25 1
w 41 -40 -25 0
w 42 41 26 1
w 42 41 -26 1
w 42 -41 26 0
w 42 -41 -26 0
w 43 42 27 0.150229
w 43 42 -27 0.19753
w 43 -42 27 0.644061
w 43 -42 -27 0.0971016
w 44 43 28 1
w 44 43 -28 0
w 44 -43 28 0
w 44 -43 -28 1
w 45 44 29 0
w 45 44 -29 1
w 45 -44 29 1
w 45 -44 -29 0
w 46 45 30 0.136211
w 46 45 -30 0.812861
w 46 -45 30 0.114579
w 46 -45 -30 0.308881
w 47 46 31 0.586324
w 47 46 -31 0.962282
w 47 -46 31 0.714452
w 47 -46 -31 0.64748
w 48 47 32 1
w 48 47 -32 0
w 48 -47 32 1
w 48 -47 -32 0
w 49 33 0
w 49 -33 1
w 50 49 34 0.502156
w 50 49 -34 0.498598
w 50 -49 34 0.606273
w 50 -49 -34 0.755326
w 51 50 35 1
w 51 50 -35 1
w 51 -50 35 0
w 51 -50 -35 0
w 52 51 36 0.081342
w 52 51 -36 0.211893
w 52 -51 36 0.245713
w 52 -51 -36 0.835908
w 53 52 37 1
w 53 52 -37 1
w 53 -52 37 0
w 53 -52 -37 0
w 54 53 38 0.619267
w 54 53 -38 0.568738
w 54 -53 38 0.184291
w 54 -53 -38 0.0940014
w 55 54 39 0.992768
w 55 54 -39 0.0919484
w 55 -54 39 0.0546458
w 55 -54 -39 0.297393
w 56 55 40 0.563817
w 56 55 -40 0.799549
w 56 -55 40 0.445082
w 56 -55 -40 0.170089
w 57 56 41 0.712868
w 57 56 -41 0.190337
w 57 -56 41 0.193998
w 57 -56 -41 0.415603
w 58 57 42 0
w 58 57 -42 1
w 58 -57 42 1
w 58 -57 -42 1
w 59 58 43 1
w 59 58 -43 1
w 59 -58 43 0
w 59 -58 -43 0
w 60 59 44 1
w 60 59 -44 0
w 60 -59 44 1
w 60 -59 -44 1
w 61 60 45 1
w 61 60 -45 0
w 61 -60 45 1
w 61 -60 -45 0
w 62 61 46 1
w 62 61 -46 0
w 62 -61 46 1
w 62 -61 -46 0
w 63 62 47 0
w 63 62 -47 1
w 63 -62 47 1
w 63 -62 -47 1
w 64 63 48 0.656038
w 64 63 -48 0.863116
w 64 -63 48 0.273221
w 64 -63 -48 0.101972
w 65 49 1
w 65 -49 0
w 66 65 50 0.453303
w 66 65 -50 0.889414
w 66 -65 50 0.347032
w 66 -65 -50 0.631969
w 67 66 51 0.417321
w 67 66 -51 0.379374
w 67 -66 51 0.714006
w 67 -66 -51 0.581612
w 68 67 52 0.711215
w 68 67 -52 0.83785
w 68 -67 52 0.320237
w 68 -67 -52 0.005818
w 69 68 53 0
w 69 68 -53 0
w 69 -68 53 1
w 69 -68 -53 0
w 70 69 54 0.0490534
w 70 69 -54 0.0354657
w 70 -69 54 0.592019
w 70 -69 -54 0.82533
w 71 70 55 0.455135
w 71 70 -55 0.0985507
w 71 -70 55 0.793477
w 71 -70 -55 0.584057
w 72 71 56 0.689487
w 72 71 -56 0.0373599
w 72 -71 56 0.594038
w 72 -71 -56 0.0365191
w 73 72 57 0.303602
w 73 72 -57 0.45384
w 73 -72 57 0.0487038
w 73 -72 -57 0.0176087
w 74 73 58 0
w 74 73 -58 1
w 74 -73 58 1
w 74 -73 -58 1
w 75 74 59 0.573232
w 75 74 -59 0.834611
w 75 -74 59 0.602255
w 75 -74 -59 0.186701
w 76 75 60 0.651309
w 76 75 -60 0.222166
w 76 -75 60 0.175625
w 76 -75 -60 0.476639
w 77 76 61 0.630761
w 77 76 -61 0.575189
w 77 -76 61 0.707147
w 77 -76 -61 0.214818
w 78 77 62 1
w 78 77 -62 0
w 78 -77 62 0
w 78 -77 -62 1
w 79 78 63 0.177454
w 79 78 -63 0.886993
w 79 -78 63 0.970211
w 79 -78 -63 0.195063
w 80 79 64 0.841398
w 80 79 -64 0.923887
w 80 -79 64 0.795747
w 80 -79 -64 0.0328215
w 81 65 0.709623
w 81 -65 0.606054
w 82 81 66 1
w 82 81 -66 0
w 82 -81 66 0
w 82 -81 -66 0
w 83 82 67 0
w 83 82 -67 0
w 83 -82 67 0
w 83 -82 -67 1
w 84 83 68 0
w 84 83 -68 0
w 84 -83 68 1
w 84 -83 -68 0
w 85 84 69 1
w 85 84 -69 1
w 85 -84 69 0
w 85 -84 -69 1
w 86 85 70 1
w 86 85 -70 1
w 86 -85 70 1
w 86 -85 -70 0
w 87 86 71 0
w 87 86 -71 1
w 87 -86 71 1
w 87 -86 -71 1
w 88 87 72 0.616755
w 88 87 -72 0.0922117
w 88 -87 72 0.514874
w 88 -87 -72 0.693502
w 89 88 73 0
w 89 88 -73 0
w 89 -88 73 0
w 89 -88 -73 1
w 90 89 74 0.0941225
w 90 89 -74 0.926957
w 90 -89 74 0.805071
w 90 -89 -74 0.126494
w 91 90 75 1
w 91 90 -75 0
w 91 -90 75 0
w 91 -90 -75 0
w 92 91 76 0.790568
w 92 91 -76 0.861085
w 92 -91 76 0.219498
w 92 -91 -76 0.873812
w 93 92 77 1
w 93 92 -77 1
w 93 -92 77 1
w 93 -92 -77 0
w 94 93 78 0.0665392
w 94 93 -78 0.162753
w 94 -93 78 0.226871
w 94 -93 -78 0.760041
w 95 94 79 0
w 95 94 -79 1
w 95 -94 79 1
w 95 -94 -79 1
w 96 95 80 0
w 96 95 -80 0
w 96 -95 80 0
w 96 -95 -80 1
w 97 81 0.00244113
w 97 -81 0.0276839
w 98 97 82 0
w 98 97 -82 1
w 98 -97 82 1
w 98 -97 -82 0
w 99 98 83 0
w 99 98 -83 1
w 99 -98 83 1
w 99 -98 -83 1
w 100 99 84 0.552466
w 100 99 -84 0.653942
w 100 -99 84 0.0259073
w 100 -99 -84 0.715219
w 101 100 85 0.785948
w 101 100 -85 0.933371
w 101 -100 85 0.637478
w 101 -100 -85 0.491863
w 102 101 86 0.852527
w 102 101 -86 0.0267849
w 102 -101 86 0.870368
w 102 -101 -86 0.161699
w 103 102 87 0
w 103 102 -87 0
w 103 -102 87 0
w 103 -102 -87 1
w 104 103 88 0.515316
w 104 103 -88 0.223826
w 104 -103 88 0.597268
w 104 -103 -88 0.59357
w 105 104 89 0
w 105 104 -89 1
w 105 -104 89 1
w 105 -104 -89 0
w 106 105 90 1
w 106 105 -90 0
w 106 -105 90 1
w 106 -105 -90 0
w 107 106 91 0.0223375
w 107 106 -91 0.688047
w 107 -106 91 0.471968
w 107 -106 -91 0.659815
w 108 107 92 0
w 108 107 -92 1
w 108 -107 92 1
w 108 -107 -92 1
w 109 108 93 0.888142
w 109 108 -93 0.271407
w 109 -108 93 0.922988
w 109 -108 -93 0.78964
w 110 109 94 0.438304
w 110 109 -94 0.0134664
w 110 -109 94 0.493725
w 110 -109 -94 0.0318739
w 111 110 95 0
w 111 110 -95 0
w 111 -110 95 1
w 111 -110 -95 0
w 112 111 96 0
w 112 111 -96 0
w 112 -111 96 1
w 112 -111 -96 1
w 113 97 0.228955
w 113 -97 0.803867
w 114 113 98 1
w 114 113 -98 1
w 114 -113 98 0
w 114 -113 -98 1
w 115 114 99 1
w 115 114 -99 1
w 115 -114 99 0
w 115 -114 -99 1
w 116 115 100 1
w 116 115 -100 0
w 116 -115 100 0
w 116 -115 -100 1
w 117 116 101 0
w 117 116 -101 0
w 117 -116 101 0
w 117 -116 -101 1
w 118 117 102 0.944849
w 118 117 -102 0.573076
w 118 -117 102 0.921602
w 118 -117 -102 0.15857
w 119 118 103 0.128219
w 119 118 -103 0.27439
w 119 -118 103 0.865672
w 119 -118 -103 0.357174
w 120 119 104 1
w 120 119 -104 0
w 120 -119 104 1
w 120 -119 -104 1
w 121 120 105 0.252507
w 121 120 -105 0.254881
w 121 -120 105 0.722214
w 121 -120 -105 0.138338
w 122 121 106 0.0687767
w 122 121 -106 0.947158
w 122 -121 106 0.811536
w 122 -121 -106 0.311796
w 123 122 107 0
w 123 122 -107 0
w 123 -122 107 1
w 123 -122 -107 1
w 124 123 108 1
w 124 123 -108 0
w 124 -123 108 1
w 124 -123 -108 1
w 125 124 109 0.591148
w 125 124 -109 0.379608
w 125 -124 109 0.983279
w 125 -124 -109 0.456819
w 126 125 110 0.0615356
w 126 125 -110 0.710054
w 126 -125 110 0.982727
w 126 -125 -110 0.12357
w 127 126 111 1
w 127 126 -111 1
w 127 -126 111 0
w 127 -126 -111 0
w 128 127 112 0.362841
w 128 127 -112 0.420776
w 128 -127 112 0.461572
w 128 -127 -112 0.174376
w 129 113 0.655854
w 129 -113 0.172526
w 130 129 114 0.129133
w 130 129 -114 0.777995
w 130 -129 114 0.849108
w 130 -129 -114 0.458921
w 131 130 115 0
w 131 130 -115 1
w 131 -130 115 0
w 131 -130 -115 1
w 132 131 116 0
w 132 131 -116 1
w 132 -131 116 1
w 132 -131 -116 1
w 133 132 117 1
w 133 132 -117 0
w 133 -132 117 0
w 133 -132 -117 0
w 134 133 118 0.442223
w 134 133 -118 0.791212
w 134 -133 118 0.0960764
w 134 -133 -118 0.805064
w 135 134 119 0
w 135 134 -119 0
w 135 -134 119 1
w 135 -134 -119 1
w 136 135 120 1
w 136 135 -120 1
w 136 -135 120 0
w 136 -135 -120 1
w 137 136 121 0.258273
w 137 136 -121 0.0649587
w 137 -136 121 0.511866
w 137 -136 -121 0.295475
w 138 137 122 1
w 138 137 -122 0
w 138 -137 122 0
w 138 -137 -122 0
w 139 138 123 1
w 139 138 -123 1
w 139 -138 123 0
w 139 -138 -123 1
w 140 139 124 0.185219
w 140 139 -124 0.0926267
w 140 -139 124 0.468338
w 140 -139 -124 0.281296
w 141 140 125 0.680325
w 141 140 -125 0.838944
w 141 -140 125 0.877131
w 141 -140 -125 0.624885
w 142 141 126 0
w 142 141 -126 1
w 142 -141 126 0
w 142 -141 -126 0
w 143 142 127 0.19664
w 143 142 -127 0.21733
w 143 -142 127 0.990294
w 143 -142 -127 0.708506
w 144 143 128 0.13658
w 144 143 -128 0.310291
w 144 -143 128 0.82876
w 144 -143 -128 0.821012
w 145 129 0.226732
w 145 -129 0.753644
w 146 145 130 0.830289
w 146 145 -130 0.404048
w 146 -145 130 0.653816
w 146 -145 -130 0.0155083
w 147 146 131 0
w 147 146 -131 0
w 147 -146 131 1
w 147 -146 -131 0
w 148 147 132 0
w 148 147 -132 1
w 148 -147 132 0
w 148 -147 -132 0
w 149 148 133 0.583279
w 149 148 -133 0.259648
w 149 -148 133 0.703255
w 149 -148 -133 0.779918
w 150 149 134 0
w 150 149 -134 0
w 150 -149 134 1
w 150 -149 -134 0
w 151 150 135 0.818544
w 151 150 -135 0.65114
w 151 -150 135 0.537491
w 151 -150 -135 0.0452755
w 152 151 136 1
w 152 151 -136 0
w 152 -151 136 0
w 152 -151 -136 0
w 153 152 137 0
w 153 152 -137 1
w 153 -152 137 0
w 153 -152 -137 0
w 154 153 138 1
w 154 153 -138 1
w 154 -153 138 0
w 154 -153 -138 1
w 155 154 139 1
w 155 154 -139 0
w 155 -154 139 0
w 155 -154 -139 1
w 156 155 140 0
w 156 155 -140 0
w 156 -155 140 1
w 156 -155 -140 1
w 157 156 141 1
w 157 156 -141 0
w 157 -156 141 1
w 157 -156 -141 0
w 158 157 142 0.21383
w 158 157 -142 0.737752
w 158 -157 142 0.3896
w 158 -157 -142 0.381827
w 159 158 143 0.695106
w 159 158 -143 0.671977
w 159 -158 143 0.816702
w 159 -158 -143 0.394977
w 160 159 144 0.140327
w 160 159 -144 0.366344
w 160 -159 144 0.2846
w 160 -159 -144 0.652148
w 161 145 0.582513
w 161 -145 0.747248
w 162 161 146 1
w 162 161 -146 0
w 162 -161 146 1
w 162 -161 -146 0
w 163 162 147 0.176863
w 163 162 -147 0.803241
w 163 -162 147 0.147868
w 163 -162 -147 0.993774
w 164 163 148 0.847518
w 164 163 -148 0.855962
w 164 -163 148 0.559994
w 164 -163 -148 0.0613481
w 165 164 149 0.949593
w 165 164 -149 0.443175
w 165 -164 149 0.222538
w 165 -164 -149 0.644699
w 166 165 150 0
w 166 165 -150 1
w 166 -165 150 1
w 166 -165 -150 0
w 167 166 151 0
w 167 166 -151 1
w 167 -166 151 1
w 167 -166 -151 1
w 168 167 152 0.214233
w 168 167 -152 0.330554
w 168 -167 152 0.20123
w 168 -167 -152 0.392727
w 169 168 153 0.18694
w 169 168 -153 0.56959
w 169 -168 153 0.412192
w 169 -168 -153 0.334808
w 170 169 154 0.391418
w 170 169 -154 0.182326
w 170 -169 154 0.419326
w 170 -169 -154 0.951411
w 171 170 155 0
w 171 170 -155 0
w 171 -170 155 1
w 171 -170 -155 0
w 172 171 156 0.802002
w 172 171 -156 0.274817
w 172 -171 156 0.585381
w 172 -171 -156 0.681761
w 173 172 157 0
w 173 172 -157 1
w 173 -172 157 0
w 173 -172 -157 1
w 174 173 158 0.865062
w 174 173 -158 0.249958
w 174 -173 158 0.923548
w 174 -173 -158 0.0662928
w 175 174 159 0.532498
w 175 174 -159 0.253233
w 175 -174 159 0.212274
w 175 -174 -159 0.94469
w 176 175 160 0.775638
w 176 175 -160 0.336108
w 176 -175 160 0.770367
w 176 -175 -160 0.194964
w 177 161 0
w 177 -161 1
w 178 177 162 1
w 178 177 -162 1
w 178 -177 162 1
w 178 -177 -162 0
w 179 178 163 0.718397
w 179 178 -163 0.319608
w 179 -178 163 0.184654
w 179 -178 -163 0.172781
w 180 179 164 1
w 180 179 -164 0
w 180 -179 164 1
w 180 -179 -164 0
w 181 180 165 1
w 181 180 -165 1
w 181 -180 165 0
w 181 -180 -165 1
w 182 181 166 1
w 182 181 -166 0
w 182 -181 166 0
w 182 -181 -166 0
w 183 182 167 1
w 183 182 -167 1
w 183 -182 167 0
w 183 -182 -167 1
w 184 183 168 0.836655
w 184 183 -168 0.716809
w 184 -183 168 0.0738359
w 184 -183 -168 0.570882
w 185 184 169 0
w 185 184 -169 1
w 185 -184 169 1
w 185 -184 -169 0
w 186 185 170 0
w 186 185 -170 0
w 186 -185 170 1
w 186 -185 -170 0
w 187 186 171 0.144925
w 187 186 -171 0.606215
w 187 -186 171 0.138071
w 187 -186 -171 0.384302
w 188 187 172 0.781539
w 188 187 -172 0.835953
w 188 -187 172 0.710534
w 188 -187 -172 0.0130477
w 189 188 173 1
w 189 188 -173 0
w 189 -188 173 1
w 189 -188 -173 1
w 190 189 174 0
w 190 189 -174 1
w 190 -189 174 1
w 190 -189 -174 0
w 191 190 175 0.98182
w 191 190 -175 0.0173046
w 191 -190 175 0.371707
w 191 -190 -175 0.946834
w 192 191 176 1
w 192 191 -176 1
w 192 -191 176 1
w 192 -191 -176 0
w 193 177 1
w 193 -177 0
w 194 193 178 1
w 194 193 -178 1
w 194 -193 178 0
w 194 -193 -178 1
w 195 194 179 0
w 195 194 -179 1
w 195 -194 179 0
w 195 -194 -179 1
w 196 195 180 0
w 196 195 -180 0
w 196 -195 180 1
w 196 -195 -180 0
w 197 196 181 0
w 197 196 -181 1
w 197 -196 181 1
w 197 -196 -181 1
w 198 197 182 0
w 198 197 -182 1
w 198 -197 182 1
w 198 -197 -182 1
w 199 198 183 0
w 199 198 -183 1
w 199 -198 183 1
w 199 -198 -183 0
w 200 199 184 0
w 200 199 -184 1
w 200 -199 184 1
w 200 -199 -184 1
w 201 200 185 0.354711
w 201 200 -185 0.750262
w 201 -200 185 0.880736
w 201 -200 -185 0.294371
w 202 201 186 0.561691
w 202 201 -186 0.953311
w 202 -201 186 0.913392
w 202 -201 -186 0.358396
w 203 202 187 1
w 203 202 -187 0
w 203 -202 187 0
w 203 -202 -187 0
w 204 203 188 0
w 204 203 -188 0
w 204 -203 188 0
w 204 -203 -188 1
w 205 204 189 0.513422
w 205 204 -189 0.791489
w 205 -204 189 0.600511
w 205 -204 -189 0.917659
w 206 205 190 1
w 206 205 -190 0
w 206 -205 190 1
w 206 -205 -190 0
w 207 206 191 0
w 207 206 -191 0
w 207 -206 191 1
w 207 -206 -191 0
w 208 207 192 0.729046
w 208 207 -192 0.0173173
w 208 -207 192 0.757629
w 208 -207 -192 0.0874424
w 209 193 1
w 209 -193 0
w 210 209 194 1
w 210 209 -194 0
w 210 -209 194 1
w 210 -209 -194 1
w 211 210 195 0.972682
w 211 210 -195 0.0108869
w 211 -210 195 0.583631
w 211 -210 -195 0.486104
w 212 211 196 0.184141
w 212 211 -196 0.403763
w 212 -211 196 0.85066
w 212 -211 -196 0.112869
w 213 212 197 0.452003
w 213 212 -197 0.527794
w 213 -212 197 0.259862
w 213 -212 -197 0.738623
w 214 213 198 1
w 214 213 -198 0
w 214 -213 198 0
w 214 -213 -198 0
w 215 214 199 0.378753
w 215 214 -199 0.889561
w 215 -214 199 0.722467
w 215 -214 -199 0.564253
w 216 215 200 1
w 216 215 -200 0
w 216 -215 200 0
w 216 -215 -200 0
w 217 216 201 0.33028
w 217 216 -201 0.872214
w 217 -216 201 0.83474
w 217 -216 -201 0.913911
w 218 217 202 0
w 218 217 -202 1
w 218 -217 202 0
w 218 -217 -202 0
w 219 218 203 0
w 219 218 -203 0
w 219 -218 203 1
w 219 -218 -203 1
w 220 219 204 0.0361453
w 220 219 -204 0.291927
w 220 -219 204 0.584379
w 220 -219 -204 0.397582
w 221 220 205 0
w 221 220 -205 1
w 221 -220 205 1
w 221 -220 -205 1
w 222 221 206 0.0964694
w 222 221 -206 0.600211
w 222 -221 206 0.209534
w 222 -221 -206 0.996001
w 223 222 207 1
w 223 222 -207 1
w 223 -222 207 1
w 223 -222 -207 0
w 224 223 208 1
w 224 223 -208 1
w 224 -223 208 1
w 224 -223 -208 0
w 225 209 0.323473
w 225 -209 0.501415
w 226 225 210 0.00187431
w 226 225 -210 0.53756
w 226 -225 210 0.0291434
w 226 -225 -210 0.586254
w 227 226 211 0.453003
w 227 226 -211 0.805658
w 227 -226 211 0.711477
w 227 -226 -211 0.766423
w 228 227 212 0.052065
w 228 227 -212 0.485063
w 228 -227 212 0.843998
w 228 -227 -212 0.652276
w 229 228 213 0.839999
w 229 228 -213 0.07634
w 229 -228 213 0.234411
w 229 -228 -213 0.708214
w 230 229 214 0
w 230 229 -214 0
w 230 -229 214 0
w 230 -229 -214 1
w 231 230 215 0.614759
w 231 230 -215 0.00261224
w 231 -230 215 0.656341
w 231 -230 -215 0.938232
w 232 231 216 0.393557
w 232 231 -216 0.940106
w 232 -231 216 0.0415872
w 232 -231 -216 0.4227
w 233 232 217 0.976729
w 233 232 -217 0.875703
w 233 -232 217 0.332018
w 233 -232 -217 0.688206
w 234 233 218 0.079546
w 234 233 -218 0.740271
w 234 -233 218 0.12719
w 234 -233 -218 0.923544
w 235 234 219 0
w 235 234 -219 1
w 235 -234 219 0
w 235 -234 -219 1
w 236 235 220 1
w 236 235 -220 0
w 236 -235 220 1
w 236 -235 -220 1
w 237 236 221 1
w 237 236 -221 0
w 237 -236 221 1
w 237 -236 -221 0
w 238 237 222 1
w 238 237 -222 0
w 238 -237 222 0
w 238 -237 -222 1
w 239 238 223 1
w 239 238 -223 0
w 239 -238 223 1
w 239 -238 -223 1
w 240 239 224 0
w 240 239 -224 1
w 240 -239 224 1
w 240 -239 -224 0
w 241 225 1
w 241 -225 0
w 242 241 226 0
w 242 241 -226 0
w 242 -241 226 0
w 242 -241 -226 1
w 243 242 227 0
w 243 242 -227 1
w 243 -242 227 1
w 243 -242 -227 1
w 244 243 228 1
w 244 243 -228 0
w 244 -243 228 1
w 244 -243 -228 0
w 245 244 229 1
w 245 244 -229 1
w 245 -244 229 1
w 245 -244 -229 0
w 246 245 230 0
w 246 245 -230 1
w 246 -245 230 0
w 246 -245 -230 0
w 247 246 231 0.975662
w 247 246 -231 0.70126
w 247 -246 231 0.0387767
w 247 -246 -231 0.244926
w 248 247 232 0.837888
w 248 247 -232 0.570388
w 248 -247 232 0.479419
w 248 -247 -232 0.44103
w 249 248 233 0.510879
w 249 248 -233 0.0792664
w 249 -248 233 0.694227
w 249 -248 -233 0.872198
w 250 249 234 0
w 250 249 -234 0
w 250 -249 234 0
w 250 -249 -234 1
w 251 250 235 0.647895
w 251 250 -235 0.33118
w 251 -250 235 0.476732
w 251 -250 -235 0.106812
w 252 251 236 0.684628
w 252 251 -236 0.952298
w 252 -251 236 0.675518
w 252 -251 -236 0.212813
w 253 252 237 1
w 253 252 -237 1
w 253 -252 237 0
w 253 -252 -237 1
w 254 253 238 1
w 254 253 -238 0
w 254 -253 238 1
w 254 -253 -238 1
w 255 254 239 0.809919
w 255 254 -239 0.781031
w 255 -254 239 0.338201
w 255 -254 -239 0.682117
w 256 255 240 0
w 256 255 -240 0
w 256 -255 240 0
w 256 -255 -240 1